! RHF cc-pvtz tightscf nopop MP2 tightopt PAL8
* xyzfile 0 1 geom.xyz
