! PAL8 nopop tightscf printmos RHF
%basis
GTOName = "/Users/johannes/Documents/Uni/BasisSets/cc-pvtz.bas"
end
%CASSCF
nel 2
norb 2
PTmethod sc_NEVPT2
nroots 3
end
* xyzfile 0 1 anthracene_opt_MP2_cc-pvtz.xyz
