! PAL8 nopop tightscf printmos RHF
%basis
GTOName = "/Users/johannes/Documents/Uni/BasisSets/cc-pvdz.bas"
end
* xyzfile 0 1 anthracene_opt_MP2_cc-pvdz.xyz
